RAW/CMTT/fspd-long/CMT4T.vrp_seed-7.out
990.3907467	35.241	353.277
