RAW/CMTT/fspd-long/CMT4T.vrp_seed-7.sol
Route #1: 77 32 51 22 101 3 59 20 131 83 2 100 11
Route #2: 139 110 18 55 134 111 135 143 4 149 56
Route #3: 5 90 71 123 122 124 125 33 72 91 45 15 52 108 103
Route #4: 47 146 109 145 144 12
Route #5: 129 29 128 84 35 85 36 115 121 116 70 28 31 82 80 120 1 119
Route #6: 38 62 118 50 130 34 74 79 21 53 127 16 126 78
Route #7: 76 49 10 54 106 73 117 89 39 75 105 30 104 9
Route #8: 102 6 57 132 98 23 69 7 61 112 48 138 46
Route #9: 27 81 60 8 140 26 113 114 99 43 86 97 24 96 58 133
Route #10: 68 14 25 95 67 13 136 40 88 93 65 107 44 37
Route #11: 17 147 142 148 87 150 141 66 41 94 19 64 42 92 137 63
Cost 990.390747